\ Model Cl_30_Ins_5.lp
\ LP format - for model browsing. Use MPS format to capture full model detail.
Maximize
 
Subject To
 obj1: y[0] = 0
 obj2: y[1] = 0
 obj1_Exp: - y[0] + 94 x[0] + 92 x[1] + 90 x[2] + 80 x[3] + 78 x[4]
   + 76 x[5] + 70 x[6] + 68 x[7] + 62 x[8] + 61 x[9] + 61 x[10] + 58 x[11]
   + 58 x[12] + 57 x[13] + 48 x[14] + 48 x[15] + 45 x[16] + 35 x[17]
   + 33 x[18] + 31 x[19] + 30 x[20] + 23 x[21] + 17 x[22] + 15 x[23]
   + 11 x[24] + 8 x[25] + 6 x[26] + 5 x[27] + 5 x[28] + 4 x[29] = 0
 obj2_Exp: - y[1] + 6 x[0] + 18 x[1] + 69 x[2] + 44 x[3] + 74 x[4]
   + 54 x[5] + 18 x[6] + 4 x[7] + 44 x[8] + 84 x[9] + 98 x[10] + 97 x[11]
   + 79 x[12] + 95 x[13] + 98 x[14] + 40 x[15] + 81 x[16] + 84 x[17]
   + 48 x[18] + 40 x[19] + 43 x[20] + 35 x[21] + 27 x[22] + 52 x[23]
   + 70 x[24] + 65 x[25] + 47 x[26] + 49 x[27] + 33 x[28] + 21 x[29] = 0
 Budget: 104 x[0] + 102 x[1] + 100 x[2] + 90 x[3] + 88 x[4] + 86 x[5]
   + 80 x[6] + 78 x[7] + 72 x[8] + 71 x[9] + 71 x[10] + 68 x[11] + 68 x[12]
   + 67 x[13] + 58 x[14] + 58 x[15] + 55 x[16] + 45 x[17] + 43 x[18]
   + 41 x[19] + 40 x[20] + 33 x[21] + 27 x[22] + 25 x[23] + 21 x[24]
   + 18 x[25] + 16 x[26] + 15 x[27] + 15 x[28] + 14 x[29] <= 763
Bounds
Binaries
 x[0] x[1] x[2] x[3] x[4] x[5] x[6] x[7] x[8] x[9] x[10] x[11] x[12] x[13]
 x[14] x[15] x[16] x[17] x[18] x[19] x[20] x[21] x[22] x[23] x[24] x[25]
 x[26] x[27] x[28] x[29]
Generals
 y[0] y[1]
End
